Normalized Data/p10_7090_tsplib0_normalized_splitx10_0.vrp
NAME:p10_7090_tsplib0_NORMALIZED_splitx10_
BEST_KNOWN: 0
COMMENT: 0
DIMENSION: 1302
CAPACITY: 1000
EDGE_WEIGHT_FORMAT: FUNCTION
EDGE_WEIGHT_TYPE: EXACT_2D
NODE_COORD_SECTION
1 0.00000 0.00000
2 -13 -13
3 -13 -13
4 -13 -13
5 -13 -13
6 -13 -13
7 -13 -13
8 -13 -13
9 1 -9
10 1 -9
11 1 -9
12 1 -9
13 1 -9
14 1 -9
15 1 -9
16 -14 10
17 -14 10
18 -14 10
19 -14 10
20 -14 10
21 -14 10
22 -14 10
23 -14 10
24 10 0
25 10 0
26 10 0
27 10 0
28 10 0
29 20 -15
30 20 -15
31 20 -15
32 20 -15
33 20 -15
34 20 -15
35 20 -15
36 20 -15
37 -2 -1
38 -2 -1
39 -2 -1
40 -2 -1
41 -2 -1
42 -2 -1
43 -2 -1
44 15 15
45 15 15
46 15 15
47 15 15
48 15 15
49 15 15
50 15 15
51 15 15
52 15 15
53 20 10
54 20 10
55 20 10
56 20 10
57 20 10
58 20 10
59 -9 24
60 -9 24
61 -9 24
62 -9 24
63 -9 24
64 -9 24
65 -9 24
66 -9 24
67 5 31
68 5 31
69 5 31
70 5 31
71 20 30
72 20 30
73 20 30
74 20 30
75 20 30
76 20 30
77 0 16
78 0 16
79 0 16
80 0 16
81 0 16
82 0 16
83 0 16
84 27 0
85 27 0
86 27 0
87 27 0
88 27 0
89 27 0
90 27 0
91 27 0
92 27 0
93 27 22
94 27 22
95 27 22
96 27 22
97 27 -11
98 27 -11
99 27 -11
100 27 -11
101 27 -11
102 27 -11
103 27 -11
104 27 -11
105 -14 1
106 -14 1
107 -14 1
108 -14 1
109 -14 1
110 -2 9
111 -2 9
112 -2 9
113 -2 9
114 -2 9
115 -26 21
116 -26 21
117 -26 21
118 -26 21
119 27 13
120 27 13
121 27 13
122 27 13
123 27 13
124 27 13
125 27 13
126 31 -21
127 31 -21
128 31 -21
129 31 -21
130 9 -22
131 9 -22
132 9 -22
133 9 -22
134 9 -22
135 9 -22
136 -9 -22
137 -9 -22
138 -9 -22
139 -9 -22
140 -9 -22
141 -9 -22
142 -24 -7
143 -24 -7
144 -24 -7
145 -24 -7
146 -24 -7
147 -24 -7
148 -24 -7
149 -28 8
150 -28 8
151 -28 8
152 -28 8
153 -28 8
154 -18 29
155 -18 29
156 -18 29
157 -18 29
158 -18 29
159 6 11
160 6 11
161 6 11
162 6 11
163 6 11
164 6 11
165 6 11
166 6 11
167 20 -1
168 20 -1
169 20 -1
170 20 -1
171 0 -19
172 0 -19
173 0 -19
174 0 -19
175 0 -19
176 17 -9
177 17 -9
178 17 -9
179 17 -9
180 17 -9
181 17 -9
182 17 -9
183 8 -9
184 8 -9
185 8 -9
186 8 -9
187 8 -9
188 8 -9
189 -4 41
190 -4 41
191 -4 41
192 -4 41
193 -4 41
194 -4 41
195 -4 41
196 -13 18
197 -13 18
198 -13 18
199 -13 18
200 -13 18
201 -13 18
202 -9 -6
203 -9 -6
204 -9 -6
205 -9 -6
206 -9 -6
207 -9 -6
208 15 5
209 15 5
210 15 5
211 15 5
212 15 5
213 15 5
214 15 5
215 15 5
216 20 15
217 20 15
218 20 15
219 20 15
220 20 15
221 20 15
222 19 -25
223 19 -25
224 19 -25
225 19 -25
226 19 -25
227 19 -25
228 19 -25
229 19 -25
230 19 -25
231 25 -20
232 25 -20
233 25 -20
234 25 -20
235 25 -20
236 12 31
237 12 31
238 12 31
239 12 31
240 12 31
241 12 31
242 12 31
243 12 31
244 12 31
245 -5 25
246 -5 25
247 -5 25
248 -5 25
249 -5 25
250 -5 25
251 -5 25
252 -5 25
253 -5 25
254 -5 15
255 -5 15
256 -5 15
257 -5 15
258 -5 15
259 -5 15
260 -23 -18
261 -23 -18
262 -23 -18
263 -23 -18
264 -23 -18
265 -23 -18
266 -23 -18
267 -20 -21
268 -20 -21
269 -20 -21
270 -20 -21
271 -20 -21
272 -19 -16
273 -19 -16
274 -19 -16
275 -19 -16
276 -19 -16
277 -19 -16
278 -14 13
279 -14 13
280 -14 13
281 -14 13
282 -14 13
283 -14 13
284 -14 13
285 15 -5
286 15 -5
287 15 -5
288 15 -5
289 15 -5
290 15 -5
291 15 -5
292 16 7
293 16 7
294 16 7
295 16 7
296 16 7
297 15 -20
298 15 -20
299 15 -20
300 15 -20
301 15 -20
302 15 -20
303 15 -20
304 15 -20
305 15 -20
306 13 -14
307 13 -14
308 13 -14
309 13 -14
310 13 -14
311 13 -14
312 13 -14
313 13 -14
314 -23 3
315 -23 3
316 -23 3
317 -23 3
318 -23 3
319 -23 3
320 2 17
321 2 17
322 2 17
323 2 17
324 2 17
325 2 17
326 14 14
327 14 14
328 14 14
329 14 14
330 14 14
331 14 14
332 14 14
333 17 29
334 17 29
335 17 29
336 17 29
337 17 29
338 17 29
339 17 29
340 -15 -9
341 -15 -9
342 -15 -9
343 -15 -9
344 -15 -9
345 5 -5
346 5 -5
347 5 -5
348 5 -5
349 5 -5
350 5 -5
351 5 -5
352 5 -5
353 -14 12
354 -14 12
355 -14 12
356 -14 12
357 -14 12
358 -14 12
359 -14 12
360 -14 12
361 -18 28
362 -18 28
363 -18 28
364 -18 28
365 -18 28
366 -18 28
367 -18 28
368 -18 28
369 -4 27
370 -4 27
371 -4 27
372 -4 27
373 -4 27
374 -4 27
375 17 -2
376 17 -2
377 17 -2
378 17 -2
379 17 -2
380 17 -2
381 17 -2
382 17 -2
383 16 -14
384 16 -14
385 16 -14
386 16 -14
387 16 -14
388 16 -14
389 16 -14
390 16 -14
391 7 6
392 7 6
393 7 6
394 7 6
395 7 6
396 7 6
397 -4 -3
398 -4 -3
399 -4 -3
400 -4 -3
401 -4 -3
402 -4 -3
403 -4 -3
404 -30 -10
405 -30 -10
406 -30 -10
407 -30 -10
408 -30 -10
409 -23 7
410 -23 7
411 -23 7
412 -23 7
413 -23 7
414 -23 7
415 1 -19
416 1 -19
417 1 -19
418 1 -19
419 1 -19
420 17 6
421 17 6
422 17 6
423 17 6
424 17 6
425 17 6
426 17 6
427 -8 -12
428 -8 -12
429 -8 -12
430 -8 -12
431 -8 -12
432 -8 -12
433 -8 -12
434 -8 -12
435 -8 -12
436 -18 -2
437 -18 -2
438 -18 -2
439 -18 -2
440 -18 -2
441 -18 -2
442 -18 -2
443 -22 -22
444 -22 -22
445 -22 -22
446 -22 -22
447 -22 -22
448 22 23
449 22 23
450 22 23
451 22 23
452 22 23
453 22 23
454 22 23
455 22 23
456 22 23
457 27 7
458 27 7
459 27 7
460 27 7
461 27 7
462 27 7
463 27 7
464 7 22
465 7 22
466 7 22
467 7 22
468 7 22
469 7 22
470 7 22
471 7 22
472 -19 22
473 -19 22
474 -19 22
475 -19 22
476 -19 22
477 -19 22
478 -19 22
479 -27 17
480 -27 17
481 -27 17
482 -27 17
483 -27 17
484 -27 17
485 -28 3
486 -28 3
487 -28 3
488 -28 3
489 -28 3
490 -28 3
491 -28 3
492 -28 3
493 -28 3
494 -8 33
495 -8 33
496 -8 33
497 -8 33
498 -8 33
499 -5 13
500 -5 13
501 -5 13
502 -5 13
503 -5 13
504 -5 13
505 8 32
506 8 32
507 8 32
508 8 32
509 8 32
510 23 13
511 23 13
512 23 13
513 23 13
514 23 13
515 23 13
516 23 13
517 23 13
518 23 -8
519 23 -8
520 23 -8
521 23 -8
522 23 -8
523 2 34
524 2 34
525 2 34
526 2 34
527 2 34
528 2 34
529 3 11
530 3 11
531 3 11
532 3 11
533 3 11
534 3 11
535 3 11
536 11 -25
537 11 -25
538 11 -25
539 11 -25
540 11 -25
541 26 -2
542 26 -2
543 26 -2
544 26 -2
545 26 -2
546 26 -2
547 26 -2
548 27 28
549 27 28
550 27 28
551 27 28
552 27 28
553 27 28
554 28 34
555 28 34
556 28 34
557 28 34
558 28 34
559 28 34
560 28 34
561 28 34
562 28 34
563 -3 -13
564 -3 -13
565 -3 -13
566 -3 -13
567 -3 -13
568 10 0
569 10 0
570 10 0
571 10 0
572 10 0
573 10 0
574 10 0
575 10 0
576 10 0
577 24 -20
578 24 -20
579 24 -20
580 24 -20
581 24 -20
582 24 -20
583 -30 -29
584 -30 -29
585 -30 -29
586 -30 -29
587 -30 -29
588 -30 -29
589 -30 -29
590 -25 -18
591 -25 -18
592 -25 -18
593 -25 -18
594 -25 -18
595 -25 -18
596 -14 -25
597 -14 -25
598 -14 -25
599 -14 -25
600 -14 -25
601 -14 -25
602 -30 29
603 -30 29
604 -30 29
605 -30 29
606 -30 29
607 -5 -20
608 -5 -20
609 -5 -20
610 -5 -20
611 -5 -20
612 -5 -20
613 -5 -20
614 4 -25
615 4 -25
616 4 -25
617 4 -25
618 4 -25
619 4 -25
620 4 -25
621 4 -25
622 -3 4
623 -3 4
624 -3 4
625 -3 4
626 -3 4
627 -3 4
628 -3 4
629 -10 -3
630 -10 -3
631 -10 -3
632 -10 -3
633 -10 -3
634 -10 20
635 -10 20
636 -10 20
637 -10 20
638 -10 20
639 13 -7
640 13 -7
641 13 -7
642 13 -7
643 13 -7
644 13 -7
645 13 -7
646 13 -7
647 21 2
648 21 2
649 21 2
650 21 2
651 21 2
652 6 14
653 6 14
654 6 14
655 6 14
656 6 14
657 6 14
658 0 -18
659 0 -18
660 0 -18
661 0 -18
662 0 -18
663 0 -18
664 0 -18
665 20 10
666 20 10
667 20 10
668 20 10
669 20 10
670 20 -15
671 20 -15
672 20 -15
673 20 -15
674 20 -15
675 -20 -5
676 -20 -5
677 -20 -5
678 -20 -5
679 -20 -5
680 -20 -5
681 -20 -5
682 -20 -5
683 -20 -5
684 -10 -5
685 -10 -5
686 -10 -5
687 -10 -5
688 -10 -5
689 -10 -5
690 -10 -5
691 -10 -5
692 -15 15
693 -15 15
694 -15 15
695 -15 15
696 -15 15
697 -15 15
698 -15 15
699 -15 15
700 -25 8
701 -25 8
702 -25 8
703 -25 8
704 -25 8
705 20 25
706 20 25
707 20 25
708 20 25
709 20 25
710 -5 25
711 -5 25
712 -5 25
713 -5 25
714 -5 25
715 -5 25
716 -15 30
717 -15 30
718 -15 30
719 -15 30
720 -15 30
721 -15 30
722 -15 30
723 -15 30
724 15 0
725 15 0
726 15 0
727 15 0
728 15 0
729 15 0
730 15 0
731 15 0
732 -5 -10
733 -5 -10
734 -5 -10
735 -5 -10
736 -5 -10
737 -5 -10
738 -5 -10
739 -20 -25
740 -20 -25
741 -20 -25
742 -20 -25
743 -5 -30
744 -5 -30
745 -5 -30
746 -5 -30
747 -5 -30
748 -5 -30
749 -25 -15
750 -25 -15
751 -25 -15
752 -25 -15
753 -25 -15
754 -25 -15
755 -25 -15
756 -30 -5
757 -30 -5
758 -30 -5
759 -30 -5
760 -30 -5
761 -30 -5
762 -30 -5
763 -15 5
764 -15 5
765 -15 5
766 -15 5
767 -15 5
768 -15 5
769 -15 5
770 -20 25
771 -20 25
772 -20 25
773 -20 25
774 -20 25
775 -20 25
776 10 30
777 10 30
778 10 30
779 10 30
780 10 30
781 10 -15
782 10 -15
783 10 -15
784 10 -15
785 10 -15
786 10 -15
787 10 -15
788 10 -15
789 10 -25
790 10 -25
791 10 -25
792 10 -25
793 10 -25
794 10 -25
795 20 -30
796 20 -30
797 20 -30
798 20 -30
799 20 -30
800 20 -30
801 20 -30
802 20 -30
803 20 -30
804 30 0
805 30 0
806 30 0
807 30 0
808 30 0
809 30 -15
810 30 -15
811 30 -15
812 30 -15
813 30 -15
814 30 -15
815 30 -15
816 10 -5
817 10 -5
818 10 -5
819 10 -5
820 10 -5
821 10 -5
822 10 -5
823 0 5
824 0 5
825 0 5
826 0 5
827 6 2
828 6 2
829 6 2
830 6 2
831 6 2
832 6 2
833 6 2
834 6 2
835 6 2
836 29 7
837 29 7
838 29 7
839 29 7
840 29 7
841 29 7
842 29 7
843 29 7
844 29 7
845 5 25
846 5 25
847 5 25
848 5 25
849 5 25
850 5 25
851 5 25
852 -4 17
853 -4 17
854 -4 17
855 -4 17
856 -4 17
857 -4 17
858 -4 17
859 -4 17
860 -4 17
861 0 34
862 0 34
863 0 34
864 0 34
865 0 34
866 0 34
867 18 17
868 18 17
869 18 17
870 18 17
871 18 17
872 18 17
873 30 20
874 30 20
875 30 20
876 30 20
877 30 20
878 28 30
879 28 30
880 28 30
881 28 30
882 28 30
883 28 30
884 28 30
885 28 30
886 -33 25
887 -33 25
888 -33 25
889 -33 25
890 -33 25
891 -15 -15
892 -15 -15
893 -15 -15
894 -15 -15
895 -15 -15
896 -30 -30
897 -30 -30
898 -30 -30
899 -30 -30
900 -30 -30
901 25 -23
902 25 -23
903 25 -23
904 25 -23
905 25 -23
906 25 -23
907 5 -10
908 5 -10
909 5 -10
910 5 -10
911 5 -10
912 5 -10
913 7 -28
914 7 -28
915 7 -28
916 7 -28
917 7 -28
918 7 -28
919 7 -28
920 7 -28
921 -11 -23
922 -11 -23
923 -11 -23
924 -11 -23
925 -11 -23
926 -12 -32
927 -12 -32
928 -12 -32
929 -12 -32
930 -12 -32
931 -12 -32
932 -24 -21
933 -24 -21
934 -24 -21
935 -24 -21
936 -24 -21
937 -29 3
938 -29 3
939 -29 3
940 -29 3
941 -29 3
942 -29 3
943 -29 3
944 -33 13
945 -33 13
946 -33 13
947 -33 13
948 -33 13
949 -33 13
950 -33 13
951 -27 21
952 -27 21
953 -27 21
954 -27 21
955 -27 21
956 -27 21
957 -27 21
958 -22 17
959 -22 17
960 -22 17
961 -22 17
962 -22 17
963 -22 17
964 -22 17
965 -22 17
966 -22 17
967 -29 33
968 -29 33
969 -29 33
970 -29 33
971 -29 33
972 -29 33
973 -29 33
974 -29 33
975 12 12
976 12 12
977 12 12
978 12 12
979 12 12
980 14 23
981 14 23
982 14 23
983 14 23
984 14 23
985 14 23
986 14 23
987 -8 8
988 -8 8
989 -8 8
990 -8 8
991 -8 8
992 -8 8
993 -8 8
994 -8 8
995 -8 8
996 2 -4
997 2 -4
998 2 -4
999 2 -4
1000 2 -4
1001 2 -4
1002 22 -6
1003 22 -6
1004 22 -6
1005 22 -6
1006 22 -6
1007 22 -6
1008 22 -6
1009 22 -6
1010 22 -6
1011 28 -12
1012 28 -12
1013 28 -12
1014 28 -12
1015 28 -12
1016 28 -12
1017 28 -12
1018 28 -12
1019 18 -23
1020 18 -23
1021 18 -23
1022 18 -23
1023 18 -23
1024 18 -23
1025 18 -23
1026 18 -23
1027 -3 -23
1028 -3 -23
1029 -3 -23
1030 -3 -23
1031 1 -9
1032 1 -9
1033 1 -9
1034 1 -9
1035 1 -9
1036 1 -9
1037 1 -9
1038 -14 -11
1039 -14 -11
1040 -14 -11
1041 -14 -11
1042 -14 -11
1043 -14 -11
1044 -18 -1
1045 -18 -1
1046 -18 -1
1047 -18 -1
1048 -18 -1
1049 -18 -1
1050 -18 -1
1051 -18 -1
1052 -23 -11
1053 -23 -11
1054 -23 -11
1055 -23 -11
1056 -11 23
1057 -11 23
1058 -11 23
1059 -11 23
1060 -8 34
1061 -8 34
1062 -8 34
1063 -8 34
1064 -8 34
1065 -8 34
1066 -20 42
1067 -20 42
1068 -20 42
1069 -20 42
1070 27 42
1071 27 42
1072 27 42
1073 27 42
1074 27 42
1075 27 42
1076 14 38
1077 14 38
1078 14 38
1079 14 38
1080 32 -30
1081 32 -30
1082 32 -30
1083 32 -30
1084 32 -30
1085 21 4
1086 21 4
1087 21 4
1088 21 4
1089 21 4
1090 21 4
1091 21 4
1092 21 4
1093 21 4
1094 2 12
1095 2 12
1096 2 12
1097 2 12
1098 2 12
1099 2 12
1100 2 12
1101 2 12
1102 2 21
1103 2 21
1104 2 21
1105 2 21
1106 22 33
1107 22 33
1108 22 33
1109 22 33
1110 12 -19
1111 12 -19
1112 12 -19
1113 12 -19
1114 12 -19
1115 9 -18
1116 9 -18
1117 9 -18
1118 9 -18
1119 9 -18
1120 9 -18
1121 9 -18
1122 9 -18
1123 9 -18
1124 11 -22
1125 11 -22
1126 11 -22
1127 11 -22
1128 11 -22
1129 11 -22
1130 14 -24
1131 14 -24
1132 14 -24
1133 14 -24
1134 14 -24
1135 14 -24
1136 14 -24
1137 14 -24
1138 14 7
1139 14 7
1140 14 7
1141 14 7
1142 14 7
1143 14 7
1144 18 8
1145 18 8
1146 18 8
1147 18 8
1148 18 8
1149 18 8
1150 18 8
1151 18 8
1152 26 17
1153 26 17
1154 26 17
1155 26 17
1156 26 17
1157 26 17
1158 22 13
1159 22 13
1160 22 13
1161 22 13
1162 21 2
1163 21 2
1164 21 2
1165 21 2
1166 21 2
1167 21 2
1168 21 2
1169 21 2
1170 21 2
1171 20 19
1172 20 19
1173 20 19
1174 20 19
1175 20 19
1176 20 19
1177 -20 12
1178 -20 12
1179 -20 12
1180 -20 12
1181 -20 12
1182 -20 12
1183 -20 12
1184 -21 2
1185 -21 2
1186 -21 2
1187 -21 2
1188 -21 2
1189 -21 2
1190 -24 -4
1191 -24 -4
1192 -24 -4
1193 -24 -4
1194 -24 -4
1195 -19 -13
1196 -19 -13
1197 -19 -13
1198 -19 -13
1199 -19 -13
1200 -31 -17
1201 -31 -17
1202 -31 -17
1203 -31 -17
1204 -31 -17
1205 -7 -17
1206 -7 -17
1207 -7 -17
1208 -7 -17
1209 -7 -17
1210 -9 17
1211 -9 17
1212 -9 17
1213 -9 17
1214 -9 17
1215 -9 17
1216 -9 0
1217 -9 0
1218 -9 0
1219 -9 0
1220 -9 0
1221 -9 0
1222 -9 0
1223 -9 0
1224 -4 32
1225 -4 32
1226 -4 32
1227 -4 32
1228 -4 32
1229 -4 32
1230 -4 32
1231 -4 32
1232 -4 32
1233 -20 -16
1234 -20 -16
1235 -20 -16
1236 -20 -16
1237 -20 -16
1238 -20 -16
1239 -20 -16
1240 -20 -16
1241 -13 -13
1242 -13 -13
1243 -13 -13
1244 -13 -13
1245 -13 -13
1246 -13 -13
1247 -13 -13
1248 -13 -13
1249 -13 -13
1250 -17 -11
1251 -17 -11
1252 -17 -11
1253 -17 -11
1254 -17 -11
1255 -17 -11
1256 -17 -11
1257 -17 -11
1258 -9 -8
1259 -9 -8
1260 -9 -8
1261 -9 -8
1262 -9 -8
1263 -9 -8
1264 -9 -8
1265 -9 -8
1266 -10 -11
1267 -10 -11
1268 -10 -11
1269 -10 -11
1270 -10 -11
1271 -10 -11
1272 -10 -11
1273 -13 -8
1274 -13 -8
1275 -13 -8
1276 -13 -8
1277 -13 -8
1278 -10 -14
1279 -10 -14
1280 -10 -14
1281 -10 -14
1282 -10 -14
1283 -16 -14
1284 -16 -14
1285 -16 -14
1286 -16 -14
1287 -16 -14
1288 -16 -14
1289 -16 -14
1290 -15 -9
1291 -15 -9
1292 -15 -9
1293 -15 -9
1294 -15 -9
1295 -15 -9
1296 -15 -9
1297 -17 -17
1298 -17 -17
1299 -17 -17
1300 -17 -17
1301 -17 -17
1302 -17 -17
DEMAND_SECTION
1 0
2 200
3 200
4 200
5 200
6 50
7 10
8 10
9 200
10 200
11 200
12 100
13 50
14 10
15 10
16 200
17 200
18 200
19 100
20 10
21 10
22 10
23 10
24 200
25 200
26 200
27 200
28 10
29 200
30 200
31 200
32 200
33 50
34 10
35 10
36 10
37 200
38 200
39 200
40 200
41 50
42 10
43 10
44 200
45 200
46 200
47 100
48 50
49 10
50 10
51 10
52 10
53 200
54 200
55 200
56 100
57 10
58 10
59 200
60 200
61 200
62 100
63 10
64 10
65 10
66 10
67 200
68 200
69 200
70 100
71 200
72 200
73 200
74 200
75 50
76 10
77 200
78 200
79 200
80 100
81 50
82 10
83 10
84 200
85 200
86 200
87 100
88 50
89 10
90 10
91 10
92 10
93 200
94 200
95 200
96 200
97 200
98 200
99 200
100 200
101 10
102 10
103 10
104 10
105 200
106 200
107 200
108 100
109 50
110 200
111 200
112 200
113 100
114 10
115 200
116 200
117 200
118 200
119 200
120 200
121 200
122 200
123 50
124 10
125 10
126 200
127 200
128 200
129 200
130 200
131 200
132 200
133 100
134 10
135 10
136 200
137 200
138 200
139 200
140 10
141 10
142 200
143 200
144 200
145 200
146 10
147 10
148 10
149 200
150 200
151 200
152 200
153 10
154 200
155 200
156 200
157 200
158 50
159 200
160 200
161 200
162 200
163 10
164 10
165 10
166 10
167 200
168 200
169 200
170 100
171 200
172 200
173 200
174 200
175 50
176 200
177 200
178 200
179 100
180 10
181 10
182 10
183 200
184 200
185 200
186 100
187 10
188 10
189 200
190 200
191 200
192 200
193 50
194 10
195 10
196 200
197 200
198 200
199 200
200 50
201 10
202 200
203 200
204 200
205 200
206 50
207 10
208 200
209 200
210 200
211 100
212 10
213 10
214 10
215 10
216 200
217 200
218 200
219 200
220 50
221 10
222 200
223 200
224 200
225 100
226 50
227 10
228 10
229 10
230 10
231 200
232 200
233 200
234 200
235 50
236 200
237 200
238 200
239 100
240 50
241 10
242 10
243 10
244 10
245 200
246 200
247 200
248 100
249 50
250 10
251 10
252 10
253 10
254 200
255 200
256 200
257 200
258 50
259 10
260 200
261 200
262 200
263 100
264 10
265 10
266 10
267 200
268 200
269 200
270 100
271 10
272 200
273 200
274 200
275 200
276 10
277 10
278 200
279 200
280 200
281 200
282 10
283 10
284 10
285 200
286 200
287 200
288 200
289 50
290 10
291 10
292 200
293 200
294 200
295 100
296 50
297 200
298 200
299 200
300 100
301 50
302 10
303 10
304 10
305 10
306 200
307 200
308 200
309 100
310 50
311 10
312 10
313 10
314 200
315 200
316 200
317 200
318 50
319 10
320 200
321 200
322 200
323 200
324 10
325 10
326 200
327 200
328 200
329 200
330 10
331 10
332 10
333 200
334 200
335 200
336 200
337 10
338 10
339 10
340 200
341 200
342 200
343 100
344 10
345 200
346 200
347 200
348 200
349 50
350 10
351 10
352 10
353 200
354 200
355 200
356 200
357 10
358 10
359 10
360 10
361 200
362 200
363 200
364 200
365 10
366 10
367 10
368 10
369 200
370 200
371 200
372 100
373 50
374 10
375 200
376 200
377 200
378 200
379 10
380 10
381 10
382 10
383 200
384 200
385 200
386 100
387 50
388 10
389 10
390 10
391 200
392 200
393 200
394 100
395 50
396 10
397 200
398 200
399 200
400 200
401 50
402 10
403 10
404 200
405 200
406 200
407 100
408 50
409 200
410 200
411 200
412 100
413 50
414 10
415 200
416 200
417 200
418 100
419 50
420 200
421 200
422 200
423 100
424 50
425 10
426 10
427 200
428 200
429 200
430 100
431 50
432 10
433 10
434 10
435 10
436 200
437 200
438 200
439 200
440 50
441 10
442 10
443 200
444 200
445 200
446 100
447 10
448 200
449 200
450 200
451 200
452 50
453 10
454 10
455 10
456 10
457 200
458 200
459 200
460 200
461 50
462 10
463 10
464 200
465 200
466 200
467 200
468 50
469 10
470 10
471 10
472 200
473 200
474 200
475 200
476 50
477 10
478 10
479 200
480 200
481 200
482 200
483 50
484 10
485 200
486 200
487 200
488 200
489 50
490 10
491 10
492 10
493 10
494 200
495 200
496 200
497 100
498 10
499 200
500 200
501 200
502 100
503 50
504 10
505 200
506 200
507 200
508 200
509 10
510 200
511 200
512 200
513 200
514 10
515 10
516 10
517 10
518 200
519 200
520 200
521 200
522 10
523 200
524 200
525 200
526 200
527 50
528 10
529 200
530 200
531 200
532 200
533 10
534 10
535 10
536 200
537 200
538 200
539 100
540 50
541 200
542 200
543 200
544 200
545 10
546 10
547 10
548 200
549 200
550 200
551 200
552 10
553 10
554 200
555 200
556 200
557 200
558 50
559 10
560 10
561 10
562 10
563 200
564 200
565 200
566 200
567 50
568 200
569 200
570 200
571 200
572 50
573 10
574 10
575 10
576 10
577 200
578 200
579 200
580 200
581 50
582 10
583 200
584 200
585 200
586 200
587 50
588 10
589 10
590 200
591 200
592 200
593 100
594 10
595 10
596 200
597 200
598 200
599 200
600 50
601 10
602 200
603 200
604 200
605 200
606 10
607 200
608 200
609 200
610 100
611 10
612 10
613 10
614 200
615 200
616 200
617 200
618 50
619 10
620 10
621 10
622 200
623 200
624 200
625 200
626 10
627 10
628 10
629 200
630 200
631 200
632 200
633 50
634 200
635 200
636 200
637 200
638 50
639 200
640 200
641 200
642 100
643 50
644 10
645 10
646 10
647 200
648 200
649 200
650 200
651 50
652 200
653 200
654 200
655 100
656 10
657 10
658 200
659 200
660 200
661 200
662 10
663 10
664 10
665 200
666 200
667 200
668 200
669 50
670 200
671 200
672 200
673 200
674 50
675 200
676 200
677 200
678 200
679 50
680 10
681 10
682 10
683 10
684 200
685 200
686 200
687 100
688 50
689 10
690 10
691 10
692 200
693 200
694 200
695 100
696 10
697 10
698 10
699 10
700 200
701 200
702 200
703 100
704 10
705 200
706 200
707 200
708 200
709 10
710 200
711 200
712 200
713 100
714 50
715 10
716 200
717 200
718 200
719 200
720 50
721 10
722 10
723 10
724 200
725 200
726 200
727 200
728 50
729 10
730 10
731 10
732 200
733 200
734 200
735 200
736 10
737 10
738 10
739 200
740 200
741 200
742 100
743 200
744 200
745 200
746 100
747 50
748 10
749 200
750 200
751 200
752 200
753 10
754 10
755 10
756 200
757 200
758 200
759 100
760 50
761 10
762 10
763 200
764 200
765 200
766 100
767 50
768 10
769 10
770 200
771 200
772 200
773 200
774 50
775 10
776 200
777 200
778 200
779 200
780 50
781 200
782 200
783 200
784 200
785 50
786 10
787 10
788 10
789 200
790 200
791 200
792 100
793 50
794 10
795 200
796 200
797 200
798 100
799 50
800 10
801 10
802 10
803 10
804 200
805 200
806 200
807 100
808 10
809 200
810 200
811 200
812 100
813 50
814 10
815 10
816 200
817 200
818 200
819 200
820 10
821 10
822 10
823 200
824 200
825 200
826 200
827 200
828 200
829 200
830 200
831 50
832 10
833 10
834 10
835 10
836 200
837 200
838 200
839 100
840 50
841 10
842 10
843 10
844 10
845 200
846 200
847 200
848 200
849 10
850 10
851 10
852 200
853 200
854 200
855 100
856 50
857 10
858 10
859 10
860 10
861 200
862 200
863 200
864 200
865 10
866 10
867 200
868 200
869 200
870 200
871 10
872 10
873 200
874 200
875 200
876 200
877 50
878 200
879 200
880 200
881 200
882 10
883 10
884 10
885 10
886 200
887 200
888 200
889 200
890 50
891 200
892 200
893 200
894 200
895 10
896 200
897 200
898 200
899 200
900 10
901 200
902 200
903 200
904 100
905 50
906 10
907 200
908 200
909 200
910 100
911 50
912 10
913 200
914 200
915 200
916 200
917 50
918 10
919 10
920 10
921 200
922 200
923 200
924 200
925 10
926 200
927 200
928 200
929 200
930 10
931 10
932 200
933 200
934 200
935 200
936 10
937 200
938 200
939 200
940 100
941 10
942 10
943 10
944 200
945 200
946 200
947 200
948 10
949 10
950 10
951 200
952 200
953 200
954 200
955 10
956 10
957 10
958 200
959 200
960 200
961 200
962 50
963 10
964 10
965 10
966 10
967 200
968 200
969 200
970 100
971 10
972 10
973 10
974 10
975 200
976 200
977 200
978 200
979 10
980 200
981 200
982 200
983 100
984 50
985 10
986 10
987 200
988 200
989 200
990 100
991 50
992 10
993 10
994 10
995 10
996 200
997 200
998 200
999 100
1000 10
1001 10
1002 200
1003 200
1004 200
1005 200
1006 50
1007 10
1008 10
1009 10
1010 10
1011 200
1012 200
1013 200
1014 100
1015 50
1016 10
1017 10
1018 10
1019 200
1020 200
1021 200
1022 100
1023 50
1024 10
1025 10
1026 10
1027 200
1028 200
1029 200
1030 100
1031 200
1032 200
1033 200
1034 200
1035 10
1036 10
1037 10
1038 200
1039 200
1040 200
1041 100
1042 10
1043 10
1044 200
1045 200
1046 200
1047 100
1048 10
1049 10
1050 10
1051 10
1052 200
1053 200
1054 200
1055 200
1056 200
1057 200
1058 200
1059 100
1060 200
1061 200
1062 200
1063 100
1064 10
1065 10
1066 200
1067 200
1068 200
1069 100
1070 200
1071 200
1072 200
1073 100
1074 10
1075 10
1076 200
1077 200
1078 200
1079 100
1080 200
1081 200
1082 200
1083 200
1084 50
1085 200
1086 200
1087 200
1088 200
1089 50
1090 10
1091 10
1092 10
1093 10
1094 200
1095 200
1096 200
1097 100
1098 10
1099 10
1100 10
1101 10
1102 200
1103 200
1104 200
1105 100
1106 200
1107 200
1108 200
1109 100
1110 200
1111 200
1112 200
1113 200
1114 50
1115 200
1116 200
1117 200
1118 100
1119 50
1120 10
1121 10
1122 10
1123 10
1124 200
1125 200
1126 200
1127 200
1128 10
1129 10
1130 200
1131 200
1132 200
1133 100
1134 10
1135 10
1136 10
1137 10
1138 200
1139 200
1140 200
1141 200
1142 10
1143 10
1144 200
1145 200
1146 200
1147 100
1148 50
1149 10
1150 10
1151 10
1152 200
1153 200
1154 200
1155 200
1156 10
1157 10
1158 200
1159 200
1160 200
1161 200
1162 200
1163 200
1164 200
1165 100
1166 50
1167 10
1168 10
1169 10
1170 10
1171 200
1172 200
1173 200
1174 200
1175 50
1176 10
1177 200
1178 200
1179 200
1180 200
1181 10
1182 10
1183 10
1184 200
1185 200
1186 200
1187 100
1188 50
1189 10
1190 200
1191 200
1192 200
1193 200
1194 10
1195 200
1196 200
1197 200
1198 100
1199 50
1200 200
1201 200
1202 200
1203 100
1204 50
1205 200
1206 200
1207 200
1208 200
1209 50
1210 200
1211 200
1212 200
1213 200
1214 50
1215 10
1216 200
1217 200
1218 200
1219 100
1220 10
1221 10
1222 10
1223 10
1224 200
1225 200
1226 200
1227 100
1228 50
1229 10
1230 10
1231 10
1232 10
1233 200
1234 200
1235 200
1236 100
1237 50
1238 10
1239 10
1240 10
1241 200
1242 200
1243 200
1244 100
1245 50
1246 10
1247 10
1248 10
1249 10
1250 200
1251 200
1252 200
1253 200
1254 50
1255 10
1256 10
1257 10
1258 200
1259 200
1260 200
1261 200
1262 50
1263 10
1264 10
1265 10
1266 200
1267 200
1268 200
1269 100
1270 10
1271 10
1272 10
1273 200
1274 200
1275 200
1276 100
1277 10
1278 200
1279 200
1280 200
1281 200
1282 10
1283 200
1284 200
1285 200
1286 200
1287 50
1288 10
1289 10
1290 200
1291 200
1292 200
1293 200
1294 10
1295 10
1296 10
1297 200
1298 200
1299 200
1300 100
1301 50
1302 10
DEPOT_SECTION
1
-1
EOF