Normalized Data/p10_7090_tsplib0_normalized_splitx10_0.sol
1301 -13 9 10 1030 1035 1036 11 12 1033 -14 1034 1032 8 1031 997 999 1000 998 -16 15 277 279 280 -17 1177 1178 1179 1176 -18 961 958 957 960 962 964 965 963 959 -22 20 19 21 605 603 970 973 968 972 971 967 966 969 -26 569 24 568 567 -33 671 670 673 34 29 31 32 35 -37 36 398 397 396 -38 39 986 988 987 -41 42 40 1255 1249 1254 1251 1256 1252 1253 3 1244 -51 50 49 48 455 453 454 452 451 552 551 882 884 878 879 877 880 883 881 -53 54 1160 1158 1157 -57 664 666 52 1148 1147 1143 1146 -60 59 64 62 61 65 63 58 637 1211 -68 66 507 505 504 -69 67 524 527 526 865 864 861 862 -70 74 1071 1070 1072 1073 1069 1074 336 338 337 -71 1107 1105 1106 72 -73 335 332 333 334 -75 1108 560 556 557 558 561 559 554 553 555 -82 77 80 81 78 76 79 319 323 -88 87 803 806 805 807 804 541 -92 94 95 93 218 -97 98 520 518 517 -99 100 96 101 102 103 1015 1013 1011 1014 1012 -104 314 316 313 315 -106 1188 1186 1185 1184 1183 1187 -107 105 108 766 762 763 764 -112 113 110 109 111 625 626 624 627 -116 115 114 117 953 -122 121 120 123 118 119 124 210 211 -126 128 127 125 230 -133 134 130 129 132 131 1114 1119 1118 1121 1122 -136 137 135 606 608 -138 922 920 923 921 -141 1054 1051 1053 1052 -142 144 1191 1192 1189 -146 145 143 147 405 407 404 403 406 -149 150 148 151 409 -153 155 157 154 156 364 366 367 365 774 773 -159 164 165 163 162 651 653 654 656 652 655 -160 158 161 975 976 -166 1163 647 646 648 -167 168 169 1167 1161 650 649 1169 -172 174 1029 1027 1028 1026 -176 30 669 28 672 -179 177 385 384 383 386 382 -182 184 815 817 818 -188 194 192 193 190 189 191 1063 1064 1062 497 -196 197 636 633 634 -198 361 363 360 362 -201 203 204 683 685 -205 206 1276 1272 1275 1273 1274 343 1292 -207 208 1140 1137 1138 -213 214 209 212 421 419 423 424 420 422 425 -216 215 867 866 869 -217 1152 1153 1154 1151 -219 220 1170 1174 1173 1175 1171 871 870 868 -228 222 224 229 225 227 226 221 223 579 -231 233 232 577 576 -234 1080 1081 1079 1083 1082 580 -239 242 1077 1076 1078 1075 506 508 850 849 848 -243 237 241 236 238 235 240 779 778 -246 247 244 713 251 250 710 249 252 245 714 -248 709 711 370 372 368 371 -255 854 859 853 856 851 855 852 858 857 -256 253 254 498 500 -259 262 592 590 589 591 -260 934 933 932 931 -265 264 261 263 593 594 1203 1200 1202 1199 1201 -267 268 269 266 443 445 -270 899 582 587 588 584 586 585 583 935 276 275 1287 1286 -274 271 272 273 1282 -287 284 285 286 816 -289 288 290 1008 1003 1009 1002 1005 1006 1001 1004 1007 -293 295 294 291 292 1139 1141 1142 -296 303 301 300 299 298 309 308 310 306 312 311 -297 304 302 1025 1018 1023 1022 1019 1020 1021 1024 -318 317 490 486 487 492 484 410 411 413 -321 322 1103 1102 1101 -324 320 1104 466 469 464 468 470 467 465 -331 328 329 330 327 46 47 45 326 978 -344 347 346 345 996 -348 786 785 782 780 787 1117 1120 1115 1116 -351 350 349 187 186 185 183 307 305 784 781 -357 358 352 692 695 694 691 693 696 698 697 -359 354 353 355 356 282 281 283 278 994 993 992 989 -373 369 1227 1230 1231 1223 1226 1225 1224 1228 1229 -381 378 376 380 374 377 375 379 730 728 727 -387 389 388 902 904 900 905 903 901 578 581 -390 391 392 395 393 394 827 -401 402 399 400 1222 1216 1215 1218 1217 1219 -412 408 700 703 701 699 702 -414 417 415 416 418 663 661 659 662 -426 1279 1277 1280 1278 -431 432 427 429 433 430 434 428 734 732 -438 439 436 441 1044 1048 1049 1046 1047 1050 1043 -440 756 759 757 760 758 761 755 1193 1190 -442 896 895 898 897 -448 447 450 449 1172 -457 460 456 458 461 459 462 1091 1089 1088 -463 847 844 845 846 -471 770 772 769 771 -476 474 472 473 475 477 195 200 199 990 991 -481 478 480 952 951 -489 485 488 491 940 937 938 942 936 941 939 -493 496 1067 1066 1068 1065 -494 495 1060 1059 1061 -499 503 502 257 258 1214 1210 1209 1213 1212 -501 1058 1057 1056 1055 635 -509 512 511 510 1159 -513 515 514 516 874 872 873 875 876 1155 1156 -525 522 523 860 863 -530 531 529 824 823 -532 534 528 533 1095 1097 1096 1099 1093 1094 1100 1098 -535 788 789 790 792 791 793 -537 536 538 539 1128 1126 1123 -543 86 83 84 89 85 90 91 729 -545 546 540 544 542 519 521 175 178 180 181 819 820 821 -550 547 549 548 704 -564 565 562 563 731 -566 610 612 609 611 926 927 930 925 929 928 -573 575 574 570 25 571 23 572 27 828 833 834 831 830 -600 597 598 599 596 595 924 140 139 1208 -602 601 604 888 950 -613 616 614 615 660 -620 619 618 617 912 913 919 917 916 914 915 918 -622 623 621 822 825 -631 202 1260 1258 1259 -644 645 641 639 642 643 640 638 826 832 -657 173 171 170 658 -668 665 55 667 56 1145 1144 1149 1150 -676 682 679 680 674 677 678 675 681 -684 690 686 689 628 629 632 630 1220 1221 -687 688 340 1294 342 1295 1293 341 339 1291 -707 708 706 705 985 983 979 984 982 -712 719 716 720 722 715 718 721 717 -724 723 725 726 829 -733 1206 1204 1205 1207 -735 736 737 607 746 745 747 742 743 744 -751 753 752 754 749 750 748 1198 1197 -767 768 765 152 947 948 943 949 946 944 945 -775 777 776 981 980 -783 1110 1111 1109 1112 -798 802 800 799 794 796 795 797 801 1129 -810 813 812 811 814 809 808 1017 1016 1010 -839 842 840 837 838 843 835 836 841 1085 1092 -894 444 446 738 740 741 739 1281 -911 907 910 908 909 906 995 -955 956 954 889 886 885 887 483 482 479 1180 1182 1181 -974 44 43 325 977 -1039 1037 1041 1038 1 1248 7 1243 1271 1269 -1040 1042 892 890 893 891 5 1246 1247 6 1245 -1045 437 435 1290 1289 -1084 1086 1090 1087 1165 1164 1168 1166 1162 -1113 1132 1134 1133 1131 1135 1136 1130 1125 1127 1124 -1194 1196 1195 1283 1285 -1239 1235 1238 1234 1236 1232 1233 1237 1250 -1240 1241 2 4 1242 -1257 1261 1264 1262 1263 1268 1265 1270 1266 1267 -1284 1288 1298 1296 1301 1300 1299 1297 0 





OBJ=
8328.889
BEST_KNOWN=
0.000